54 30 6 
48 28 4 
46 27 3 
46 29 3 
46 29 3 
46 29 3 
46 29 3 
46 29 3 
46 29 3 
46 29 3 
46 29 3 
46 29 3 
46 29 3 
46 29 3 
46 29 3 
46 29 3 
46 29 3 
46 29 3 
46 29 3 
46 29 3 
46 29 3 
52 29 3 
46 29 3 
46 29 3 
46 29 3 
46 29 3 
47 29 3 
47 29 3 
46 29 3 
46 29 3 
46 29 4 
45 29 3 
45 29 3 
45 29 3 
46 29 3 
45 29 3 
45 29 3 
45 29 3 
45 29 3 
45 29 3 
45 29 3 
45 28 3 
45 29 3 
45 29 3 
45 29 3 
45 29 3 
45 29 3 
45 29 3 
45 29 3 
45 29 3 
45 29 3 
45 29 3 
45 29 3 
45 29 3 
45 29 3 
45 29 3 
45 29 3 
45 29 3 
45 29 3 
53 30 5 
47 28 4 
46 29 3 
46 29 3 
46 29 3 
46 29 3 
46 29 3 
46 29 3 
46 28 3 
46 29 3 
46 29 3 
46 29 3 
46 27 3 
46 29 3 
46 29 3 
46 34 3 
46 29 3 
46 29 3 
46 29 3 
46 28 3 
46 29 3 
46 28 3 
46 29 3 
46 29 3 
47 27 3 
46 29 3 
47 28 3 
46 28 3 
46 28 3 
46 29 3 
53 31 4 
48 29 4 
46 30 3 
46 30 3 
46 30 3 
46 30 3 
46 30 3 
46 30 3 
46 30 3 
46 30 3 
48 31 4 
47 30 4 
46 30 3 
46 30 3 
46 30 3 
47 30 3 
46 30 3 
46 30 3 
46 30 3 
46 30 3 
47 30 3 
46 30 3 
47 30 3 
46 30 3 
46 30 3 
46 30 3 
46 30 3 
46 30 3 
46 30 3 
46 30 3 
53 28 4 
47 28 3 
46 27 3 
46 29 3 
47 29 3 
46 28 3 
46 28 3 
46 28 3 
46 28 3 
46 28 3 
46 29 3 
46 28 3 
46 27 3 
46 28 3 
47 28 3 
46 29 3 
47 27 3 
46 27 3 
46 29 3 
46 28 3 
47 28 3 
46 28 3 
46 27 3 
46 28 3 
47 28 3 
46 27 3 
47 29 3 
46 28 3 
46 29 3 
46 28 3 
51 28 4 
48 29 3 
46 30 3 
46 27 3 
47 28 3 
47 29 3 
47 30 3 
48 29 3 
47 29 3 
47 29 3 
47 78 3 
48 78 3 
47 72 3 
46 43 3 
46 27 3 
47 28 3 
47 29 3 
46 27 3 
46 27 3 
46 27 3 
46 28 3 
46 29 3 
46 29 3 
46 27 3 
46 27 3 
46 29 3 
46 29 3 
46 28 3 
46 27 3 
46 28 3 
51 30 4 
47 30 3 
46 30 3 
46 29 3 
46 29 3 
47 29 3 
46 29 3 
46 29 3 
46 29 3 
46 27 3 
46 28 3 
46 28 3 
46 29 3 
46 29 3 
46 29 3 
46 29 3 
46 29 3 
46 29 3 
46 29 3 
46 29 3 
48 29 4 
46 29 3 
46 29 3 
46 29 3 
46 35 3 
46 30 3 
46 29 3 
46 29 3 
46 30 3 
47 29 3 
52 30 4 
47 30 3 
46 29 3 
46 29 3 
46 29 3 
46 29 3 
46 29 3 
46 29 3 
46 29 3 
46 29 3 
46 29 3 
46 30 3 
47 29 3 
46 29 3 
46 29 3 
46 29 3 
46 29 3 
46 29 3 
46 29 3 
46 30 3 
46 29 3 
46 29 3 
47 29 3 
46 29 3 
46 29 3 
46 29 3 
46 29 3 
46 29 3 
46 29 3 
46 30 3 
52 29 5 
47 30 4 
46 27 3 
46 28 3 
46 29 3 
54 27 4 
46 27 3 
46 28 3 
46 29 3 
46 28 3 
46 27 3 
47 28 3 
47 27 3 
46 28 3 
46 28 3 
46 27 3 
47 28 3 
47 28 3 
47 28 3 
47 27 3 
46 29 3 
46 27 3 
46 29 3 
47 28 3 
46 28 3 
46 28 3 
46 28 3 
46 27 3 
46 28 3 
46 28 3 
53 29 4 
47 29 4 
46 29 3 
46 29 3 
46 30 3 
46 29 3 
46 29 3 
46 29 3 
46 29 3 
46 29 3 
46 29 3 
46 29 3 
46 29 3 
46 29 3 
46 29 3 
47 29 3 
46 29 3 
46 29 3 
46 29 3 
46 29 3 
51 29 3 
46 29 3 
46 29 3 
46 29 3 
46 29 3 
46 29 3 
46 29 3 
47 29 3 
46 29 3 
46 29 3 
52 32 4 
47 30 3 
47 30 3 
46 30 3 
46 30 3 
46 30 3 
46 30 3 
47 30 3 
46 30 3 
46 30 3 
46 30 3 
46 30 3 
46 30 3 
46 30 3 
47 30 3 
46 30 3 
46 30 3 
46 30 3 
46 30 3 
46 30 3 
46 30 3 
46 30 3 
46 30 3 
46 30 3 
46 30 3 
47 30 3 
46 30 3 
46 30 3 
46 30 3 
55 30 3 
52 31 4 
47 30 4 
46 30 3 
46 29 3 
46 29 3 
46 29 3 
46 29 3 
46 29 3 
46 29 3 
47 30 3 
46 29 3 
46 29 3 
46 29 3 
46 29 3 
46 29 3 
46 30 3 
46 29 3 
46 29 3 
46 29 3 
46 29 3 
46 29 3 
46 29 3 
46 29 3 
46 29 3 
46 29 3 
47 29 3 
46 29 3 
47 29 3 
47 29 3 
46 29 3 
53 31 4 
48 29 3 
47 27 3 
47 27 3 
47 27 3 
47 28 3 
47 28 3 
47 28 3 
48 28 3 
47 28 3 
47 28 3 
47 27 3 
48 27 3 
47 28 3 
48 28 3 
47 27 3 
47 28 3 
47 28 3 
47 28 3 
47 28 3 
48 28 3 
48 27 3 
48 27 3 
47 28 3 
47 28 3 
47 27 3 
48 27 3 
48 28 3 
47 27 3 
47 28 3 
52 37 5 
47 30 3 
46 28 3 
46 28 3 
46 30 3 
46 28 3 
46 30 3 
46 29 3 
47 30 3 
46 29 3 
48 30 4 
47 30 3 
47 28 3 
47 28 3 
46 29 3 
45 29 3 
46 28 3 
46 28 3 
46 30 3 
46 30 3 
46 29 3 
46 28 3 
46 30 3 
46 28 3 
46 30 3 
47 29 3 
46 29 3 
46 29 3 
46 28 3 
46 29 3 
53 31 4 
48 29 3 
47 32 3 
47 29 3 
46 29 3 
46 28 3 
46 27 3 
46 29 3 
47 27 3 
46 29 3 
46 29 3 
46 29 3 
53 29 3 
46 29 3 
46 29 3 
46 27 3 
46 27 3 
46 29 3 
46 27 3 
46 28 3 
46 27 3 
46 27 3 
46 28 3 
47 28 3 
47 28 3 
46 29 3 
46 28 3 
46 27 3 
46 28 3 
46 29 3 
52 29 4 
48 30 4 
47 30 3 
46 29 3 
46 29 3 
46 29 3 
46 29 3 
46 29 3 
46 29 3 
46 29 3 
47 29 3 
46 29 3 
46 29 3 
46 29 3 
46 29 3 
46 29 3 
47 29 3 
46 29 3 
46 29 3 
46 29 3 
46 29 3 
46 29 3 
46 29 3 
46 29 3 
47 29 3 
47 29 3 
46 29 3 
46 29 3 
46 29 3 
46 29 3 
52 29 4 
47 28 3 
46 29 3 
46 29 3 
46 29 3 
45 28 3 
46 28 3 
46 29 3 
46 28 3 
46 28 3 
46 27 3 
46 29 3 
45 29 3 
45 28 3 
45 28 3 
47 27 3 
46 28 3 
46 28 3 
46 29 3 
46 28 3 
47 29 4 
46 28 3 
46 29 3 
47 29 3 
46 29 3 
46 29 3 
46 29 3 
46 29 3 
46 29 3 
46 29 3 
52 31 4 
47 30 3 
46 30 3 
46 30 3 
47 30 3 
46 30 3 
46 30 3 
46 30 3 
46 30 3 
46 30 3 
46 30 3 
46 30 3 
46 30 3 
46 30 3 
46 30 3 
46 30 3 
46 30 8 
46 30 3 
46 30 3 
47 30 3 
46 30 3 
46 30 3 
46 30 3 
46 30 3 
46 30 3 
46 30 3 
46 30 3 
46 30 3 
46 30 3 
46 30 3 
52 30 4 
48 31 4 
46 30 3 
46 30 3 
46 30 3 
46 30 3 
46 30 3 
46 29 3 
46 29 3 
54 31 3 
47 29 3 
46 30 3 
46 29 3 
46 29 3 
46 29 3 
46 30 3 
46 29 3 
46 29 3 
46 29 3 
46 31 3 
46 29 3 
46 30 3 
46 29 3 
46 30 3 
46 30 3 
46 29 3 
47 29 3 
46 29 3 
46 29 3 
46 29 3 
53 29 4 
47 29 4 
46 29 3 
46 29 3 
46 29 3 
46 29 3 
46 28 3 
46 27 3 
46 27 3 
46 27 3 
46 27 3 
46 29 3 
46 27 3 
46 27 3 
46 28 3 
46 28 3 
46 27 3 
46 29 3 
46 27 3 
46 29 3 
46 27 3 
46 30 3 
47 30 3 
47 30 3 
47 30 3 
48 29 3 
47 30 3 
48 30 3 
47 30 3 
47 30 3 
57 31 7 
48 31 4 
46 29 3 
46 30 3 
47 30 3 
48 30 3 
48 30 3 
47 30 3 
48 30 3 
47 30 3 
47 72 4 
48 73 3 
46 41 3 
46 29 3 
46 29 3 
46 29 3 
46 29 3 
46 29 3 
46 29 3 
46 29 3 
46 29 3 
47 29 3 
46 29 3 
46 29 3 
46 29 3 
46 29 3 
46 29 3 
46 29 3 
46 28 3 
47 29 3 
52 30 5 
48 29 3 
46 29 3 
46 29 3 
46 29 3 
47 29 3 
46 29 3 
46 29 3 
46 35 3 
47 29 3 
46 29 3 
46 29 3 
46 29 3 
46 29 3 
47 29 3 
46 29 3 
46 29 3 
46 29 3 
46 29 3 
46 29 3 
46 29 3 
46 29 3 
46 29 3 
46 29 3 
46 29 3 
46 29 3 
46 29 3 
46 29 3 
46 29 3 
46 29 3 
51 30 4 
48 30 3 
46 29 3 
46 29 3 
46 28 3 
46 29 3 
46 29 3 
46 29 3 
47 29 3 
46 29 3 
46 29 3 
46 29 3 
46 28 3 
46 29 3 
46 29 3 
46 29 3 
46 29 3 
46 29 3 
46 29 3 
46 29 3 
46 29 3 
46 28 3 
46 29 3 
46 29 3 
46 29 3 
46 29 3 
46 29 3 
46 29 3 
46 29 3 
46 29 3 
53 31 4 
48 31 4 
46 30 3 
46 29 3 
46 29 3 
46 29 3 
46 29 3 
46 29 3 
46 29 3 
46 29 3 
48 29 4 
47 29 3 
47 29 3 
46 29 3 
46 29 3 
46 29 3 
46 29 3 
47 29 3 
46 29 3 
47 29 3 
47 29 3 
46 29 3 
46 29 3 
46 29 3 
46 29 3 
46 29 3 
47 29 3 
46 29 3 
47 29 3 
46 29 3 
52 30 4 
49 31 4 
46 30 3 
47 27 3 
46 27 3 
46 29 3 
46 28 3 
46 29 3 
46 28 3 
46 28 3 
47 29 3 
47 27 3 
46 28 3 
47 29 3 
46 28 3 
46 29 3 
46 27 3 
46 28 3 
46 28 3 
46 28 3 
47 28 3 
46 27 3 
46 29 3 
46 29 3 
47 27 3 
46 28 3 
47 28 3 
47 28 3 
46 29 3 
46 28 3 
51 31 4 
47 30 4 
46 30 3 
46 29 3 
46 30 3 
46 29 3 
46 29 3 
46 30 3 
46 30 3 
46 30 3 
46 29 3 
52 30 3 
46 29 3 
46 30 3 
46 29 3 
46 29 3 
46 29 3 
47 29 3 
46 29 3 
46 30 3 
46 28 3 
47 28 3 
46 29 3 
46 29 3 
46 28 3 
46 29 3 
46 29 3 
46 30 3 
46 29 3 
46 29 3 
52 31 4 
48 30 4 
46 30 3 
46 27 3 
46 29 3 
54 29 3 
46 29 3 
46 29 3 
46 29 3 
46 29 3 
46 29 3 
47 29 3 
46 29 3 
46 29 3 
46 29 3 
46 29 3 
46 29 3 
47 29 3 
46 29 3 
46 29 3 
47 29 4 
47 29 3 
46 29 3 
46 29 3 
46 27 3 
46 29 3 
46 29 3 
46 27 3 
46 29 3 
46 29 3 
50 29 4 
47 30 3 
46 30 3 
46 29 3 
47 30 3 
48 30 3 
48 30 3 
48 30 3 
48 28 3 
48 28 3 
48 86 3 
48 86 3 
48 86 3 
46 28 3 
46 29 3 
46 27 3 
47 28 3 
46 29 3 
46 27 3 
46 28 3 
46 28 3 
46 27 3 
46 28 3 
46 27 3 
46 28 3 
46 28 3 
53 29 3 
46 29 3 
46 29 3 
46 29 3 
50 30 4 
48 28 4 
46 27 3 
46 29 3 
46 29 3 
46 29 3 
46 28 3 
46 29 3 
46 29 3 
46 29 3 
46 28 3 
46 29 3 
46 29 3 
46 29 3 
46 28 3 
46 29 3 
46 29 3 
46 29 3 
46 29 3 
46 29 3 
46 29 3 
46 29 3 
46 29 3 
46 29 3 
46 29 3 
46 29 3 
46 29 3 
46 29 3 
47 28 3 
46 29 3 
49 31 4 
47 30 4 
46 29 3 
46 29 3 
46 30 3 
46 30 3 
46 30 3 
53 29 3 
46 30 3 
46 29 3 
47 29 3 
46 29 3 
46 29 3 
46 29 3 
46 29 3 
46 29 3 
46 29 3 
46 29 3 
46 29 3 
46 29 3 
46 29 3 
46 29 3 
46 29 3 
46 29 3 
46 29 3 
46 29 3 
46 29 3 
46 29 3 
46 29 3 
46 29 3 
50 31 4 
48 30 4 
46 30 3 
46 30 3 
46 30 3 
46 30 3 
46 30 3 
46 30 3 
46 30 3 
46 30 3 
46 30 3 
46 30 3 
46 30 3 
46 30 3 
46 30 3 
46 30 3 
47 30 3 
46 30 3 
46 30 3 
46 30 3 
46 30 3 
46 30 3 
46 30 3 
46 30 3 
46 30 3 
46 30 3 
46 30 3 
46 30 3 
46 30 3 
46 30 3 
51 30 4 
47 29 3 
46 29 3 
46 29 3 
47 29 3 
46 29 3 
46 29 3 
46 29 3 
46 29 3 
46 29 3 
46 30 3 
46 29 3 
46 29 3 
46 30 3 
46 29 3 
46 28 3 
46 29 3 
46 29 3 
46 29 3 
46 29 3 
46 29 3 
46 29 3 
47 29 3 
46 28 3 
46 28 3 
46 28 3 
52 29 3 
46 29 3 
46 29 3 
46 29 3 
52 32 4 
48 29 3 
46 29 3 
46 27 3 
46 27 3 
46 27 3 
46 28 3 
46 27 3 
46 29 3 
46 27 3 
46 28 3 
46 27 3 
46 27 3 
47 28 3 
46 27 3 
46 27 3 
46 27 3 
46 27 3 
46 28 3 
46 28 3 
46 27 3 
46 27 3 
46 27 3 
46 27 3 
46 29 3 
46 27 3 
46 28 3 
46 27 3 
46 28 3 
46 28 3 
53 31 4 
48 30 3 
47 30 3 
46 30 3 
47 30 3 
47 30 3 
47 30 3 
47 30 3 
47 30 3 
48 30 3 
